WARNING: for repeatability, setting FPU to use double precision
============================[ Problem Statistics ]=============================
|                                                                             |
|  Number of variables:       1987158                                         |
|  Number of clauses:         8561035                                         |
|  Parse time:                   1.84 s                                       |
|                                                                             |
c ============================[ Search Statistics ]==============================
c | Conflicts |          ORIGINAL         |          LEARNT          | Progress |
c |           |    Vars  Clauses Literals |    Limit  Clauses Lit/Cl |          |
c ===============================================================================
We had 152 decisions of which only 0 were on extended
We had 8905823 decisions of which only 0 were on extended
c Switched to VSIDS.
c Switched to LRB.
c Switched to VSIDS.
c Switched to LRB.
We had 13168109 decisions of which only 0.000136694 were on extended
c Switched to VSIDS.
c Switched to LRB.
We had 16238268 decisions of which only 0.000332548 were on extended
c Switched to VSIDS.
c Switched to LRB.
We had 18994946 decisions of which only 0.00035799 were on extended
c Switched to VSIDS.
c Switched to LRB.
We had 22387505 decisions of which only 0.000473478 were on extended
c Switched to VSIDS.
We had 22473769 decisions of which only 0.000471661 were on extended
We had 22554167 decisions of which only 0.00046998 were on extended
c Switched to LRB.
We had 22660469 decisions of which only 0.000511905 were on extended
We had 22705447 decisions of which only 0.000510891 were on extended
c Switched to VSIDS.
We had 22757611 decisions of which only 0.00050972 were on extended
We had 22869901 decisions of which only 0.000507217 were on extended
c Switched to LRB.
We had 22969976 decisions of which only 0.000618198 were on extended
We had 23055868 decisions of which only 0.000615895 were on extended
We had 23188015 decisions of which only 0.000612385 were on extended
c Switched to VSIDS.
We had 23230730 decisions of which only 0.000611259 were on extended
We had 23318190 decisions of which only 0.000608967 were on extended
We had 23391572 decisions of which only 0.000611331 were on extended
c Switched to LRB.
We had 23465133 decisions of which only 0.000652031 were on extended
Window full
Continue
We had 23511605 decisions of which only 0.000650742 were on extended
We had 23610315 decisions of which only 0.000648022 were on extended
c Switched to VSIDS.
We had 23717090 decisions of which only 0.000645104 were on extended
We had 23807837 decisions of which only 0.000642646 were on extended
We had 23873173 decisions of which only 0.000640887 were on extended
We had 23953551 decisions of which only 0.000638736 were on extended
c Switched to LRB.
We had 24027100 decisions of which only 0.000678401 were on extended
We had 24162101 decisions of which only 0.00067461 were on extended
We had 24225173 decisions of which only 0.000672854 were on extended
c Switched to VSIDS.
We had 24322197 decisions of which only 0.00067017 were on extended
Window full
Continue
We had 24413562 decisions of which only 0.000667662 were on extended
We had 24488726 decisions of which only 0.000665612 were on extended
We had 24599601 decisions of which only 0.000687003 were on extended
c Switched to LRB.
We had 24718277 decisions of which only 0.000724161 were on extended
We had 24846172 decisions of which only 0.000720433 were on extended
We had 24904499 decisions of which only 0.000718746 were on extended
We had 24957431 decisions of which only 0.000717221 were on extended
We had 24976751 decisions of which only 0.000716666 were on extended
We had 25011820 decisions of which only 0.000715662 were on extended
We had 25057440 decisions of which only 0.000714359 were on extended
Window full
Continue
We had 25159034 decisions of which only 0.000711474 were on extended
c Switched to VSIDS.
We had 25310974 decisions of which only 0.00112204 were on extended
We had 25375861 decisions of which only 0.00111917 were on extended
We had 25486715 decisions of which only 0.00118885 were on extended
We had 25559654 decisions of which only 0.0011972 were on extended
c Switched to LRB.
We had 25672690 decisions of which only 0.00122698 were on extended
We had 25779677 decisions of which only 0.00122189 were on extended
We had 25870512 decisions of which only 0.0012176 were on extended
We had 25970475 decisions of which only 0.00121292 were on extended
We had 26126614 decisions of which only 0.00120567 were on extended
c Switched to VSIDS.
Window full
Continue
We had 26245125 decisions of which only 0.00120022 were on extended
We had 26340316 decisions of which only 0.00121107 were on extended
We had 26432408 decisions of which only 0.00120685 were on extended
We had 26540127 decisions of which only 0.00120195 were on extended
We had 26661752 decisions of which only 0.00119647 were on extended
c Switched to LRB.
We had 26769775 decisions of which only 0.00131492 were on extended
We had 26885947 decisions of which only 0.00130923 were on extended
We had 27041113 decisions of which only 0.00130172 were on extended
We had 27248210 decisions of which only 0.00129183 were on extended
We had 27345183 decisions of which only 0.00128725 were on extended
c Switched to VSIDS.
Window full
Continue
We had 27440384 decisions of which only 0.00136295 were on extended
We had 27500496 decisions of which only 0.00138907 were on extended
We had 27622000 decisions of which only 0.00138296 were on extended
We had 27728695 decisions of which only 0.00137763 were on extended
We had 27828926 decisions of which only 0.00137267 were on extended
We had 27914265 decisions of which only 0.00136848 were on extended
We had 27991775 decisions of which only 0.00136469 were on extended
c Switched to LRB.
We had 28077807 decisions of which only 0.00142461 were on extended
We had 28173357 decisions of which only 0.00141978 were on extended
We had 28442924 decisions of which only 0.00140633 were on extended
Window full
Continue
We had 28560415 decisions of which only 0.00140054 were on extended
We had 28715246 decisions of which only 0.00139299 were on extended
We had 28905984 decisions of which only 0.00138726 were on extended
We had 29036966 decisions of which only 0.001381 were on extended
c Switched to VSIDS.
We had 29101896 decisions of which only 0.00139853 were on extended
We had 29202334 decisions of which only 0.00143482 were on extended
We had 29363567 decisions of which only 0.00143375 were on extended
We had 29477312 decisions of which only 0.00142822 were on extended
We had 29557627 decisions of which only 0.00147847 were on extended
We had 29700978 decisions of which only 0.00147133 were on extended
Window full
Continue
We had 29775800 decisions of which only 0.00147099 were on extended
c Switched to LRB.
We had 29859877 decisions of which only 0.00154053 were on extended
We had 29974888 decisions of which only 0.00153462 were on extended
We had 30071348 decisions of which only 0.0015297 were on extended
We had 30165270 decisions of which only 0.00154482 were on extended
We had 30234695 decisions of which only 0.00154128 were on extended
We had 30316033 decisions of which only 0.00154044 were on extended
We had 30366226 decisions of which only 0.00153789 were on extended
We had 30487142 decisions of which only 0.00153179 were on extended
We had 30556640 decisions of which only 0.00152831 were on extended
Window full
Deactivate
We had 30680121 decisions of which only 0.00152216 were on extended
We had 30828273 decisions of which only 0.00152457 were on extended
We had 30975724 decisions of which only 0.00151732 were on extended
We had 31122687 decisions of which only 0.00151337 were on extended
We had 31251319 decisions of which only 0.00150714 were on extended
We had 31309580 decisions of which only 0.00150433 were on extended
c Switched to VSIDS.
We had 31443424 decisions of which only 0.00175871 were on extended
We had 31627769 decisions of which only 0.0017864 were on extended
We had 31845655 decisions of which only 0.00178674 were on extended
We had 31945850 decisions of which only 0.00178114 were on extended
We had 32040159 decisions of which only 0.0017759 were on extended
We had 32145327 decisions of which only 0.0017732 were on extended
We had 32252485 decisions of which only 0.00177661 were on extended
We had 32374225 decisions of which only 0.00178537 were on extended
c Switched to LRB.
We had 32562044 decisions of which only 0.00212517 were on extended
We had 32628617 decisions of which only 0.00212084 were on extended
We had 32708259 decisions of which only 0.00211567 were on extended
We had 32814921 decisions of which only 0.00211489 were on extended
We had 32919550 decisions of which only 0.00210817 were on extended
We had 32964213 decisions of which only 0.00210531 were on extended
We had 33119739 decisions of which only 0.00209543 were on extended
We had 33201875 decisions of which only 0.00209024 were on extended
We had 33394297 decisions of which only 0.00211114 were on extended
We had 33487241 decisions of which only 0.00210528 were on extended
We had 33676056 decisions of which only 0.00210832 were on extended
We had 33834485 decisions of which only 0.00209845 were on extended
We had 33954472 decisions of which only 0.00210282 were on extended
c Switched to VSIDS.
We had 34148614 decisions of which only 0.00210257 were on extended
We had 34297961 decisions of which only 0.002108 were on extended
We had 34420946 decisions of which only 0.00210047 were on extended
We had 34540309 decisions of which only 0.00209321 were on extended
We had 34643903 decisions of which only 0.00208695 were on extended
We had 34717657 decisions of which only 0.00208251 were on extended
We had 34808996 decisions of which only 0.00207992 were on extended
We had 34922930 decisions of which only 0.00207314 were on extended
We had 35042888 decisions of which only 0.00206604 were on extended
We had 35197475 decisions of which only 0.00205697 were on extended
We had 35349738 decisions of which only 0.00204811 were on extended
c Switched to LRB.
We had 35520965 decisions of which only 0.00210298 were on extended
We had 35620575 decisions of which only 0.0020971 were on extended
We had 36062658 decisions of which only 0.0021324 were on extended
We had 36436839 decisions of which only 0.0021105 were on extended
We had 36531574 decisions of which only 0.00210503 were on extended
We had 36687789 decisions of which only 0.00209607 were on extended
We had 36792989 decisions of which only 0.00209279 were on extended
We had 36865416 decisions of which only 0.00210224 were on extended
We had 36944278 decisions of which only 0.00209775 were on extended
We had 37034611 decisions of which only 0.00212234 were on extended
We had 37120584 decisions of which only 0.00211742 were on extended
We had 37229528 decisions of which only 0.00211123 were on extended
We had 37409470 decisions of which only 0.00210107 were on extended
c Switched to VSIDS.
We had 37531513 decisions of which only 0.00209424 were on extended
We had 37660044 decisions of which only 0.00209506 were on extended
We had 37920096 decisions of which only 0.00209388 were on extended
c ===============================================================================
restarts                  : 5920
conflicts                 : 1429703        (400 /sec)
decisions                 : 38028331       (0.00 % random) (10642 /sec)
propagations              : 7342148947     (2054681 /sec)
conflict literals         : 55760307       (15.42 % deleted)

conflicts w/ DIP found    : 730880         (51.12 % of conflicts)
conflicts w/ dangerous DIP: 0              (0.00 % of conflicts)
conflicts w/ DIP-learning : 50             (0.00 % of conflicts)
decisions on ext vars     : 794            (0.00 % of decisions)
total ext vars            : 32          
tried delete ext vars     : 3           
deleted ext vars          : 3           
max ext vars              : 29          

Memory used               : 1549.00 MB
CPU time                  : 3573.38 s
DIP computation time      : 11.2622 s (0.32 % of total time)
ER_sel time               : 1.7478 s
ER_add time               : 0.001093 s
ER_delC time              : 0 s
ER_delV time              : 0.001955 s
ER_sub time               : 1.93567 s
ER_stat time              : 0 s

INDETERMINATE
